language Essence 1.3
letting n be 5 
letting totalWeight be 100

letting values be function(
    1 --> 10, 2 --> 20, 3 --> 40, 4 --> 40, 5 --> 50
)

letting weights be function(
    1 --> 15, 2 --> 25, 3 --> 45, 4 --> 50, 5 --> 60 
)
